(set-info :smt-lib-version 2.6)
(set-logic QF_SLIA)
(set-info :source |
Generated by: Joel Day, Thorsten Ehlers, Mitja Kulczynski, Federico Mora, Florin Manea, Dirk Nowotka, Danny Poulsen, Zhengyang Lu
Application: Test WOORPJE
Target solver: WOORPJE
Publications: Day, J. D., Ehlers, T., Kulczynski, M., Manea, F., Nowotka, D., & Poulsen, D. B. (2019). On solving word equations using SAT. In RP 2019
Description: Enriches a system of 30 word equations by suitable linear constraints
|)
(set-info :license "https://creativecommons.org/licenses/by/4.0/")
(set-info :category "random")
(set-info :status unknown)

(declare-fun C () String)
(declare-fun G () String)
(declare-fun A () String)
(assert (= (str.++  "fafc" A "acbc" A "af" C "aeffefef" A "fccfafcbeb" A "d")  (str.++  "fafc" A "acbcda" G "daeffefef" A "fccfafcbebdd") ))
(assert (= (str.++  "cfedaabcc" A "facfce" A "cbbfeacbcafaeaaeee" A "acbf")  (str.++  "cfedaabccdfacfce" A "cbbfeacbcafaeaaeee" A "acbf") ))
(assert (= (str.++  "acbaa" A "dcdfcfd" A "fcc" A "ea" A "ffaf" A "cffefeadba" A "f" A "a")  (str.++  "acbaaddcdfcf" A A "fccdea" A "ffaf" A "cffefea" A "ba" A "f" A "a") ))
(assert (>=(* (str.len G) 1) 4))
(assert (>=(* (str.len C) 7) 35))
(check-sat)

(exit)
